c FILE: g80-20-1.graph
c
c DESCRIPTION: This is a random graph with 80 vertices.
c   Each of pair of vertices are made adjacent with probability p = 0.2.
c   Edge weights are an integer generated uniformly at random in the interval [1, 20].
c   The random seed used for its generation was 1.
c
c 08/04/2025
c
p edge 80 659
e 0 1 17
e 0 2 6
e 0 6 2
e 0 12 8
e 0 25 17
e 0 30 12
e 0 32 17
e 0 36 18
e 0 40 8
e 0 43 3
e 0 50 1
e 0 55 20
e 0 56 10
e 0 57 6
e 0 65 10
e 0 68 4
e 0 77 6
e 1 9 19
e 1 14 7
e 1 20 6
e 1 23 2
e 1 32 7
e 1 37 4
e 1 41 20
e 1 44 7
e 1 48 14
e 1 60 6
e 1 61 18
e 1 73 18
e 1 79 5
e 2 9 9
e 2 13 9
e 2 14 2
e 2 16 1
e 2 17 4
e 2 20 19
e 2 22 6
e 2 24 4
e 2 35 10
e 2 40 11
e 2 43 7
e 2 44 20
e 2 50 7
e 2 53 9
e 2 54 15
e 2 55 19
e 2 70 8
e 2 75 1
e 3 4 17
e 3 9 5
e 3 13 17
e 3 16 7
e 3 17 2
e 3 28 8
e 3 30 15
e 3 39 14
e 3 41 12
e 3 44 9
e 3 49 17
e 3 62 9
e 3 75 15
e 4 6 9
e 4 11 16
e 4 16 2
e 4 18 9
e 4 23 20
e 4 33 11
e 4 48 20
e 4 51 5
e 4 67 1
e 4 68 1
e 4 73 17
e 5 6 15
e 5 12 13
e 5 20 15
e 5 29 17
e 5 30 13
e 5 38 8
e 5 56 9
e 5 59 17
e 5 60 19
e 5 64 17
e 5 66 3
e 5 74 3
e 6 7 10
e 6 15 9
e 6 22 20
e 6 28 6
e 6 33 9
e 6 35 5
e 6 37 15
e 6 44 13
e 6 48 20
e 6 49 7
e 6 59 8
e 6 63 8
e 6 71 7
e 6 73 1
e 7 10 1
e 7 11 5
e 7 16 10
e 7 18 2
e 7 20 9
e 7 23 16
e 7 34 19
e 7 35 14
e 7 39 12
e 7 45 9
e 7 50 4
e 7 51 7
e 7 54 3
e 7 58 11
e 7 59 18
e 7 60 5
e 7 71 9
e 7 73 13
e 8 14 15
e 8 20 10
e 8 22 13
e 8 24 12
e 8 25 3
e 8 26 18
e 8 34 11
e 8 44 19
e 8 46 17
e 8 60 9
e 8 64 14
e 8 72 3
e 8 75 3
e 9 23 16
e 9 37 15
e 9 38 10
e 9 57 15
e 9 61 6
e 9 63 14
e 10 13 12
e 10 14 5
e 10 15 6
e 10 18 10
e 10 32 7
e 10 35 9
e 10 36 4
e 10 40 20
e 10 42 2
e 10 48 18
e 10 54 2
e 10 57 13
e 10 58 15
e 10 62 16
e 10 63 13
e 10 66 9
e 10 78 12
e 11 22 7
e 11 26 20
e 11 36 6
e 11 40 17
e 11 49 5
e 11 54 6
e 11 57 19
e 11 72 12
e 11 73 9
e 11 75 19
e 11 76 3
e 11 77 4
e 12 15 13
e 12 19 11
e 12 26 5
e 12 39 17
e 12 40 8
e 12 49 12
e 12 50 18
e 12 58 3
e 12 60 7
e 12 66 13
e 12 70 10
e 12 74 1
e 13 21 16
e 13 39 12
e 13 41 2
e 13 43 11
e 13 58 11
e 13 61 16
e 13 64 19
e 13 65 7
e 13 68 8
e 13 69 11
e 14 16 16
e 14 19 13
e 14 29 17
e 14 32 13
e 14 42 6
e 14 48 19
e 14 49 7
e 14 51 2
e 14 60 2
e 14 67 10
e 14 70 5
e 14 78 13
e 15 22 20
e 15 23 12
e 15 25 9
e 15 29 5
e 15 32 3
e 15 35 14
e 15 38 15
e 15 40 3
e 15 41 2
e 15 42 13
e 15 46 18
e 15 50 7
e 15 59 10
e 15 68 11
e 15 69 5
e 15 72 14
e 15 77 7
e 16 18 19
e 16 20 4
e 16 27 6
e 16 36 5
e 16 37 1
e 16 38 15
e 16 46 2
e 16 49 6
e 16 51 17
e 16 60 2
e 16 62 5
e 16 67 19
e 17 21 19
e 17 24 20
e 17 31 19
e 17 33 11
e 17 45 6
e 17 48 19
e 17 49 4
e 17 65 6
e 17 69 18
e 17 72 7
e 17 73 16
e 17 74 17
e 17 79 11
e 18 22 12
e 18 24 11
e 18 26 18
e 18 27 19
e 18 29 17
e 18 32 4
e 18 46 16
e 18 47 9
e 18 49 8
e 18 51 6
e 18 52 17
e 18 59 20
e 18 60 20
e 18 65 1
e 18 75 17
e 19 37 15
e 19 45 14
e 19 46 4
e 19 49 18
e 19 52 11
e 19 56 3
e 19 60 10
e 19 66 17
e 19 78 2
e 20 25 10
e 20 28 10
e 20 30 5
e 20 31 12
e 20 37 10
e 20 44 8
e 20 52 17
e 20 54 10
e 20 57 1
e 20 61 2
e 20 62 18
e 20 72 13
e 20 79 6
e 21 23 6
e 21 25 4
e 21 26 11
e 21 28 15
e 21 29 2
e 21 32 3
e 21 36 7
e 21 37 4
e 21 38 8
e 21 47 12
e 21 60 3
e 21 76 18
e 21 78 15
e 22 23 6
e 22 24 20
e 22 30 5
e 22 36 6
e 22 38 2
e 22 40 12
e 22 50 13
e 22 51 9
e 22 55 10
e 22 59 10
e 22 61 4
e 22 66 3
e 22 71 18
e 22 76 12
e 22 77 3
e 23 24 7
e 23 25 16
e 23 27 12
e 23 28 8
e 23 31 7
e 23 33 1
e 23 49 11
e 23 51 3
e 23 56 11
e 23 63 6
e 23 65 14
e 23 74 5
e 24 33 17
e 24 38 16
e 24 55 5
e 24 61 16
e 24 64 20
e 24 65 6
e 24 69 9
e 24 70 6
e 24 72 20
e 25 37 15
e 25 42 4
e 25 43 13
e 25 44 13
e 25 45 15
e 25 58 2
e 25 60 18
e 25 65 2
e 25 69 11
e 25 71 18
e 25 79 7
e 26 32 4
e 26 47 6
e 26 48 15
e 26 49 4
e 27 34 13
e 27 46 1
e 27 48 14
e 27 50 6
e 27 52 14
e 27 53 11
e 27 60 18
e 27 61 5
e 27 62 19
e 27 70 6
e 27 74 3
e 27 75 16
e 27 77 12
e 28 32 15
e 28 37 10
e 28 38 17
e 28 39 4
e 28 42 13
e 28 57 5
e 28 59 1
e 28 64 6
e 28 67 14
e 28 70 8
e 28 76 15
e 28 77 17
e 28 79 4
e 29 34 1
e 29 36 1
e 29 38 3
e 29 42 18
e 29 44 18
e 29 55 7
e 29 58 12
e 29 59 12
e 29 60 7
e 29 61 19
e 29 62 17
e 29 65 16
e 29 70 20
e 29 71 20
e 29 79 17
e 30 31 15
e 30 34 17
e 30 36 13
e 30 45 5
e 30 48 12
e 30 54 5
e 30 61 1
e 30 65 15
e 30 70 13
e 30 71 11
e 31 33 2
e 31 35 2
e 31 36 17
e 31 39 5
e 31 49 20
e 31 52 20
e 31 57 7
e 31 59 14
e 31 64 6
e 31 76 20
e 31 77 10
e 32 36 13
e 32 41 8
e 32 48 8
e 32 50 16
e 32 61 5
e 32 62 13
e 32 70 5
e 32 78 12
e 33 39 19
e 33 48 20
e 33 49 2
e 33 51 20
e 33 52 2
e 33 53 3
e 33 54 2
e 33 57 16
e 33 61 12
e 33 73 16
e 33 79 13
e 34 36 18
e 34 40 13
e 34 41 7
e 34 42 15
e 34 52 3
e 34 54 15
e 34 57 6
e 34 60 8
e 34 67 1
e 34 74 4
e 34 75 7
e 34 77 20
e 35 36 1
e 35 39 18
e 35 41 5
e 35 42 5
e 35 55 16
e 35 57 20
e 35 59 2
e 35 61 11
e 35 68 2
e 35 69 14
e 35 71 18
e 35 73 7
e 36 42 13
e 36 44 4
e 36 46 19
e 36 53 13
e 36 55 11
e 36 69 4
e 36 70 20
e 36 73 19
e 36 77 8
e 37 44 6
e 37 50 17
e 37 53 3
e 37 56 10
e 37 58 12
e 37 66 16
e 37 69 1
e 37 72 16
e 37 75 11
e 38 40 17
e 38 41 5
e 38 45 1
e 38 49 14
e 38 63 14
e 38 64 14
e 38 65 18
e 38 69 14
e 39 42 3
e 39 45 19
e 39 47 16
e 39 48 5
e 39 49 2
e 39 50 4
e 39 54 9
e 39 55 16
e 39 58 12
e 39 60 11
e 39 64 15
e 39 71 2
e 39 79 4
e 40 47 7
e 40 50 13
e 40 55 8
e 40 56 13
e 40 63 20
e 40 64 5
e 40 68 1
e 40 69 6
e 40 75 9
e 41 42 11
e 41 43 20
e 41 44 13
e 41 54 11
e 41 64 13
e 41 68 18
e 41 73 10
e 41 77 19
e 42 46 13
e 42 56 3
e 42 64 9
e 42 66 1
e 42 67 4
e 42 72 8
e 42 74 3
e 42 75 4
e 42 78 9
e 43 45 13
e 43 49 19
e 43 58 17
e 43 62 1
e 43 66 2
e 43 78 17
e 44 48 14
e 44 50 4
e 44 55 8
e 44 57 16
e 44 59 11
e 44 62 2
e 44 71 16
e 44 73 16
e 44 74 9
e 44 75 4
e 44 77 15
e 45 47 9
e 45 53 9
e 45 57 1
e 45 60 7
e 45 63 12
e 45 67 1
e 45 70 11
e 46 54 17
e 46 56 8
e 46 62 5
e 46 68 6
e 46 74 10
e 46 76 17
e 46 78 11
e 46 79 17
e 47 58 13
e 47 66 7
e 47 72 20
e 48 50 11
e 48 51 15
e 48 52 9
e 48 58 2
e 48 60 18
e 48 72 13
e 48 74 8
e 49 53 2
e 49 55 3
e 49 56 9
e 49 61 6
e 49 64 13
e 49 72 6
e 50 51 1
e 50 56 13
e 50 58 8
e 50 59 15
e 50 77 1
e 50 78 9
e 50 79 11
e 51 54 8
e 51 72 19
e 51 75 3
e 51 79 11
e 52 67 6
e 52 72 13
e 52 73 20
e 52 76 16
e 53 54 12
e 53 58 16
e 53 60 17
e 53 61 8
e 53 63 18
e 53 64 12
e 53 67 10
e 53 69 3
e 53 74 7
e 53 76 14
e 54 55 3
e 54 58 5
e 54 60 20
e 54 62 9
e 54 65 19
e 54 76 19
e 54 77 14
e 55 61 2
e 55 68 7
e 55 72 8
e 55 75 8
e 56 60 10
e 56 67 2
e 56 71 16
e 56 75 20
e 57 59 7
e 57 63 5
e 57 67 17
e 57 69 4
e 57 70 13
e 57 73 14
e 57 76 8
e 57 77 11
e 58 69 2
e 58 71 17
e 58 74 5
e 58 76 5
e 59 71 15
e 59 75 8
e 59 79 1
e 60 69 8
e 60 72 14
e 60 76 4
e 61 65 5
e 61 73 20
e 61 78 5
e 62 66 20
e 62 69 2
e 62 75 15
e 63 69 9
e 63 70 8
e 63 72 2
e 63 74 15
e 63 75 8
e 63 76 13
e 64 68 7
e 64 69 11
e 64 71 18
e 64 77 19
e 65 66 4
e 65 68 16
e 65 72 9
e 65 79 14
e 66 70 11
e 66 71 10
e 66 74 9
e 66 77 19
e 67 68 19
e 67 69 6
e 67 75 16
e 68 69 14
e 68 70 17
e 68 76 17
e 68 77 7
e 68 78 12
e 69 75 17
e 69 77 5
e 69 79 1
e 70 71 9
e 70 74 5
e 70 75 14
e 72 77 4
e 73 79 7
e 76 77 10
e 77 78 7